(set-logic QF_S)
(set-option :parse-transducers true)
(set-option :produce-models true)
(define-fun-rec toLower ((x String) (y String)) Bool
   (or (and (= x "") (= y ""))
       (and (not (= x "")) (not (= y ""))
           (= (char.code (str.head y))
               (ite (and (<= 65 (char.code (str.head x)))
                       (<= (char.code (str.head x)) 90))
                   (+ (char.code (str.head x)) 32)
                   (char.code (str.head x))))
           (toLower (str.tail x) (str.tail y))))
)
(declare-fun r1[$i2] () String)
(declare-fun $r3 () String)
(declare-fun L46  () String)
(declare-fun L14  () String)
(declare-fun L58  () String)
(declare-fun L8  () String)
(declare-fun L20  () String)
(declare-fun L6  () String)
(declare-fun L3  () String)
(declare-fun L1  () String)
(declare-fun L38  () String)
(declare-fun L0  () String)
(assert (toLower $r3  L0 ))
(assert (toLower "table"  L38 ))
(assert (toLower "name"  L1 ))
(assert (toLower "database"  L3 ))
(assert (toLower r1[$i2]  L6 ))
(assert (toLower "option"  L20 ))
(assert (toLower "description"  L8 ))
(assert (toLower "field"  L58 ))
(assert (toLower "type"  L14 ))
(assert (toLower "length"  L46 ))

(assert (= L0 L1 ))
(assert (= L0 L3 ))
(assert (not (= L0 L1 )))
(assert (not (= L6 "sql" )))
(assert (not (= L0 L8 )))
(assert (not (= L0 L1 )))
(assert (= L0 L1 ))
(assert (not (= L0 L14 )))
(assert (not (= L0 L1 )))
(assert (= L0 L8 ))
(assert (= L0 L20 ))
(assert (= L0 L1 ))
(assert (= L0 L8 ))
(assert (not (= L0 L1 )))
(assert (not (= L0 L1 )))
(assert (not (= L0 L1 )))
(assert (not (= L0 L8 )))
(assert (not (= L0 L8 )))
(assert (not (= L0 L1 )))
(assert (= L0 L38 ))
(assert (= L0 L14 ))
(assert (not (= L0 L38 )))
(assert (= L0 L14 ))
(assert (not (= L0 L46 )))
(assert (not (= L0 L8 )))
(assert (not (= L0 L8 )))
(assert (not (= L0 L14 )))
(assert (= L0 L8 ))
(assert (not (= L0 L1 )))
(assert (= L0 L58 ))
(assert (not (= L0 L58 )))
(assert (not (= L0 L8 )))
(assert (not (= L0 L8 )))
(assert (not (= L0 L8 )))
(assert (not (= L0 L1 )))
(assert (not (= L0 L1 )))
(assert (= L0 L58 ))
(assert (not (= L0 L8 )))
(assert (= L6 "html" ))
(assert (not (= L0 L14 )))
(assert (not (= L0 L8 )))
(assert (= L0 L20 ))
(assert (not (= L0 L1 )))
(assert (= L0 L8 ))
(assert (= L0 L1 ))
(assert (= L0 L46 ))
(assert (not (= L0 L1 )))
(assert (not (= L0 L8 )))
(assert (not (= L0 L1 )))
(assert (not (= L0 L1 )))
(assert (not (= L0 L46 )))
(assert (= L0 L20 ))
(assert (not (= L0 L1 )))
(assert (not (= L0 L46 )))
(assert (not (= L0 L14 )))
(check-sat)
(get-model)
(exit)
